159
0 149 102 50 144 16 122 12 95 32 
51 52 58 128 19 106 104 13 92 151 
152 117 48 97 88 156 99 107 130 56 
34 8 39 103 74 40 157 63 22 62 
5 24 154 71 65 20 132 94 31 21 
44 150 114 33 118 146 77 61 4 147 
30 59 83 86 76 78 55 126 14 85 
98 158 68 123 108 91 66 133 3 73 
131 90 101 80 25 124 81 105 2 69 
41 75 112 79 121 64 127 60 7 143 
110 141 28 82 109 26 54 145 1 119 
140 15 148 49 89 125 23 135 84 139 
100 111 10 6 70 29 42 53 9 17 
46 47 138 87 142 43 116 37 137 45 
11 115 36 67 136 72 57 134 18 120 
27 113 129 96 93 35 153 155 38 
